&control
    calculation='scf'
    prefix='M0D00125Ha'
    pseudo_dir = './',
    outdir='./temp'
    tprnfor=.true.
    tefield=.true.
    dipfield=.true.
 /
&system
    ibrav=  0,
    occupations='smearing',
    smearing='fd',
    degauss=6.33361706838587E-06,
    nat=288, ntyp= 4, 
    ecutwfc = 90,
    nosym = .true.
    edir = 3            
    eamp = -0.00125
    emaxpos = 0.9
    eopreg = 0.2      
 /
 &electrons
  conv_thr    = 1.D-9,
  mixing_beta = 0.7D0,
  startingwfc='atomic'   
 /
 &IONS
 /
ATOMIC_SPECIES
Li 6.9 Li.upf
La  139   La.upf
Zr 91.224    Zr.upf
O   16   O.upf
ATOMIC_POSITIONS crystal
Li 0.13708581 0.560234189 0.224181071
Li 0.154147804 0.073377959 0.220812276
Li 0.86833173 0.045799535 0.227431372
Li 0.894977212 0.578637183 0.235404953
Li 0.018200232 0.819079936 0.240178391
Li 0.662353158 0.999982119 0.252301514
Li 0.309794277 0.550477803 0.252418011
Li 0.12643674 0.999090552 0.268441945
Li 0.790872872 0.549244761 0.279759169
Li 0.453420401 0.702997923 0.284117579
Li 0.522155523 0.965728045 0.288040489
Li 0.596010387 0.561760306 0.305240899
Li 0.29496479 0.002392022 0.305033594
Li 0.332422853 0.490747064 0.303075373
Li 0.685228765 0.14501518 0.315615237
Li 0.182508618 0.15476042 0.314122736
Li 0.756899476 0.394476861 0.317385882
Li 0.150428236 0.349182963 0.333320916
Li 0.899052382 0.258783311 0.336572766
Li 0.750694931 0.598402202 0.340355366
Li 0.190732867 0.943972886 0.354245543
Li 0.739834905 0.108089849 0.3715581
Li 0.186369434 0.487646997 0.379046053
Li 0.002574539 0.815327704 0.379934549
Li 0.772075593 0.729201674 0.382087201
Li 0.161229089 0.710416794 0.391018182
Li 0.244191736 0.939928055 0.403403163
Li 0.734621406 0.922123969 0.400190741
Li 0.582992733 0.068700895 0.411076039
Li 0.600586295 0.572780252 0.40889892
Li 0.367803216 0.489761382 0.418554217
Li 0.392421603 0.108266018 0.429634601
Li 0.481322408 0.340090007 0.431666642
Li 0.151538521 0.522466838 0.430752724
Li 0.775411904 0.079149082 0.439296484
Li 0.614812732 0.526892662 0.459975928
Li 0.261718929 0.081213847 0.472831815
Li 0.923876882 0.240371004 0.474485308
Li 0.012609277 0.486734182 0.476781398
Li 0.056095146 0.089055277 0.49371627
Li 0.807436526 0.52324146 0.495142549
Li 0.808197677 0.023736164 0.494945496
Li 0.168075681 0.662466884 0.506726027
Li 0.668423891 0.66067344 0.506509364
Li 0.236324146 0.909934044 0.508484483
Li 0.632455528 0.867015302 0.524886072
Li 0.386739492 0.778243363 0.527161896
Li 0.22770378 0.117339872 0.528903186
Li 0.671883285 0.468278259 0.541569829
Li 0.223224521 0.630464613 0.561853349
Li 0.666667044 0.005198431 0.570830166
Li 0.487295449 0.334467143 0.570061505
Li 0.252616256 0.247264385 0.572361708
Li 0.639820218 0.217451051 0.585066974
Li 0.717968464 0.453648895 0.592865527
Li 0.213438004 0.440395862 0.590792239
Li 0.068418622 0.591434896 0.601936936
Li 0.082931384 0.097832367 0.599643111
Li 0.848771155 0.013425972 0.610285342
Li 0.872201145 0.627991617 0.619781375
Li 0.963795125 0.863689363 0.62143141
Li 0.625895202 0.037112098 0.623745203
Li 0.259311974 0.596847594 0.631111503
Li 0.095622547 0.049886454 0.650461197
Li 0.738663018 0.596349061 0.662795126
Li 0.409409523 0.76850009 0.66504246
Li 0.488720059 0.009912169 0.670082152
Li 0.534485102 0.614301741 0.68382597
Li 0.280438423 0.047938708 0.687835693
Li 0.295444787 0.549119651 0.684768498
Li 0.648622036 0.192779824 0.700814962
Li 0.122018047 0.190379545 0.700085461
Li 0.737293124 0.43247366 0.701960981
Li 0.121362157 0.397662729 0.713515699
Li 0.895711541 0.318817168 0.719802141
Li 0.709660232 0.63366127 0.715977609
Li 0.115140103 0.995361388 0.727698982
Li 0.723413706 0.206676871 0.749226868
Li 0.127186105 0.532380104 0.757574022
Li 0.935865402 0.865839958 0.756737947
Li 0.703552067 0.748528302 0.764329255
Li 0.109240569 0.767116904 0.767390072
Li 0.199636608 0.007633634 0.779502869
Li 0.699701428 0.997167051 0.775426805
La 0.49769628 0.7892766 0.217390791
La 0.409529537 0.108869173 0.242822215
La 0.558062434 0.46526885 0.242137119
La 0.91243732 0.100393802 0.286494583
La 0.035373338 0.46424216 0.283968925
La 0.464427114 0.279271752 0.310247838
La 0.968562484 0.793702781 0.312315196
La 0.653240561 0.846851587 0.333486825
La 0.275922358 0.720759213 0.331404179
La 0.648830891 0.347791016 0.380421042
La 0.271209687 0.226231441 0.38166067
La 0.451879591 0.785037637 0.404916406
La 0.956967294 0.293837488 0.4054313
La 0.894316554 0.608315945 0.428945571
La 0.014825894 0.985844195 0.430677027
La 0.388481706 0.611878216 0.476875275
La 0.513082206 0.986850917 0.476891398
La 0.948275864 0.802706599 0.500869691
La 0.453326494 0.30753231 0.500670612
La 0.132214054 0.367437482 0.524768293
La 0.757187784 0.243346542 0.524938107
La 0.131408811 0.871095896 0.570901215
La 0.75308603 0.747399867 0.572448492
La 0.930998027 0.306561261 0.596888781
La 0.438403875 0.810733676 0.595645547
La 0.372546405 0.127537981 0.619958639
La 0.494062871 0.503170133 0.621096015
La 0.864144981 0.12955679 0.670034885
La 0.990503013 0.508314431 0.667560995
La 0.426902473 0.322086304 0.691195965
La 0.935667157 0.822861552 0.687792718
La 0.613726437 0.893922865 0.716561615
La 0.234105945 0.763502777 0.71420598
La 0.617955327 0.420866013 0.761152029
La 0.235478461 0.263561279 0.759398758
La 0.404122382 0.805764019 0.782609224
Zr 0.724969864 0.275759012 0.261546373
Zr 0.204815567 0.276156455 0.256682277
Zr 0.7357651 0.783533275 0.261789918
Zr 0.235057831 0.780313849 0.256121606
Zr 0.962457061 0.041414082 0.358381271
Zr 0.966618896 0.53973943 0.357067078
Zr 0.457847029 0.032823268 0.357634455
Zr 0.462017834 0.535462737 0.357217073
Zr 0.202102035 0.796434164 0.453313977
Zr 0.702017963 0.797021031 0.45328176
Zr 0.202180669 0.298485041 0.453345209
Zr 0.703482449 0.297918826 0.452872068
Zr 0.442441285 0.556464434 0.548714519
Zr 0.444686711 0.057938833 0.548298597
Zr 0.942297041 0.556587636 0.548613429
Zr 0.941689253 0.057058264 0.54873836
Zr 0.680810809 0.316168785 0.644930363
Zr 0.17957966 0.31562537 0.64425379
Zr 0.68065834 0.817772269 0.64428699
Zr 0.18834959 0.820126832 0.642922819
Zr 0.913691998 0.094432294 0.745817244
Zr 0.920761108 0.584788442 0.74044919
Zr 0.414469898 0.071410857 0.744706213
Zr 0.417511821 0.56924361 0.739386737
O 0.708762348 0.889298081 0.227070943
O 0.297298014 0.67909795 0.223904118
O 0.593044519 0.27961728 0.230749741
O 0.294154733 0.221990809 0.223667189
O 0.193225399 0.931275785 0.236859992
O 0.755966663 0.626339257 0.242866278
O 0.794675887 0.142951071 0.247608677
O 0.151597604 0.42484808 0.24483943
O 0.866378665 0.437236488 0.254827768
O 0.050067797 0.118224181 0.246585026
O 0.534179688 0.67283535 0.251923263
O 0.437628299 0.901987672 0.250708908
O 0.059735581 0.667803884 0.245812178
O 0.924081743 0.875399172 0.267311245
O 0.380882114 0.410892785 0.271626383
O 0.561453581 0.143489659 0.281532973
O 0.63871038 0.415313423 0.283234924
O 0.285414934 0.141372859 0.280942738
O 0.6809237 0.92112422 0.286281615
O 0.270441383 0.639835596 0.283673614
O 0.103780992 0.280920684 0.295281082
O 0.829062283 0.275223911 0.299735159
O 0.187469482 0.843160093 0.295538396
O 0.737502158 0.705531895 0.302736491
O 0.888219893 0.556748331 0.317356795
O 0.039470889 0.016013512 0.319235414
O 0.468300223 0.637397647 0.31999284
O 0.459872574 0.911704779 0.323522836
O 0.812450051 0.074776135 0.336645752
O 0.113368288 0.502474129 0.335336357
O 0.316603154 0.097081311 0.339442611
O 0.600054622 0.462217957 0.33970663
O 0.328347862 0.37461105 0.338823706
O 0.59254092 0.197210535 0.342468828
O 0.077734403 0.734860778 0.353104264
O 0.862339079 0.846356809 0.354453951
O 0.066697843 0.232507989 0.361931294
O 0.854027271 0.352100074 0.363712281
O 0.316704601 0.874560475 0.374077767
O 0.59813112 0.692670703 0.374788016
O 0.59468168 0.96548903 0.376855493
O 0.333706766 0.617644548 0.373978496
O 0.820586741 0.58263272 0.378973573
O 0.106507123 0.003076484 0.382101685
O 0.453360021 0.148097634 0.39255628
O 0.461317271 0.422400922 0.393047333
O 0.87764585 0.063934907 0.396946073
O 0.048044864 0.533270478 0.39698568
O 0.195221081 0.380452603 0.413348764
O 0.725690246 0.212795272 0.414109707
O 0.091253139 0.799749255 0.41761598
O 0.817838252 0.794592202 0.418399215
O 0.665742874 0.443030655 0.429522425
O 0.241537169 0.149837449 0.431966066
O 0.284050316 0.667565346 0.435635597
O 0.632569849 0.932347119 0.43423748
O 0.361251205 0.934137523 0.436429232
O 0.542401016 0.654060125 0.437616587
O 0.012819805 0.189844817 0.447042823
O 0.895673513 0.401545197 0.448283225
O 0.510460496 0.196186185 0.456699222
O 0.394436121 0.409098595 0.457183003
O 0.865757465 0.931812763 0.46923998
O 0.042005196 0.661683679 0.470006794
O 0.128734156 0.929833353 0.472509772
O 0.768005669 0.657286227 0.471764416
O 0.165509239 0.445660532 0.475411683
O 0.740649045 0.149286419 0.474984378
O 0.586484432 0.802708566 0.487777352
O 0.312415093 0.797761261 0.489626974
O 0.678231299 0.373444706 0.492134362
O 0.214988306 0.218828127 0.493052512
O 0.364589393 0.069978252 0.508573055
O 0.518246174 0.53183794 0.509387076
O 0.943421364 0.166615203 0.512260318
O 0.948178768 0.441443831 0.514000773
O 0.294012874 0.594300866 0.526616395
O 0.591795206 0.020240083 0.526436687
O 0.802301943 0.622143209 0.529969394
O 0.075697765 0.984112799 0.529585719
O 0.807051837 0.895999789 0.532194257
O 0.077797763 0.720668554 0.532841921
O 0.554925084 0.249597445 0.543999135
O 0.340404481 0.363922209 0.544847071
O 0.546006978 0.749139071 0.553063214
O 0.334556729 0.868236542 0.554189801
O 0.800312817 0.396565884 0.564229548
O 0.078131475 0.216331348 0.565844655
O 0.077597737 0.487767667 0.567695081
O 0.812106609 0.137947038 0.566357017
O 0.296236575 0.097162187 0.569846511
O 0.588221192 0.519310355 0.571963072
O 0.937532663 0.672819912 0.583233237
O 0.945044637 0.94641006 0.584436595
O 0.358310521 0.58047843 0.587323725
O 0.524513721 0.048777316 0.588325083
O 0.674159169 0.899397254 0.60456723
O 0.210337684 0.735093474 0.604587972
O 0.567888737 0.314846426 0.608770907
O 0.294129968 0.308949202 0.609313667
O 0.150144696 0.966503918 0.620372355
O 0.721115887 0.669381797 0.6232481
O 0.757690907 0.185826316 0.626701891
O 0.112799674 0.45331493 0.625062048
O 0.837582767 0.453333825 0.627063811
O 0.020163249 0.173967689 0.628570974
O 0.491909385 0.706816614 0.638194978
O 0.379879802 0.923524141 0.63989234
O 0.995069325 0.719324052 0.645843804
O 0.872475564 0.929344177 0.647382796
O 0.344501913 0.451511204 0.659260571
O 0.521606982 0.184813902 0.663872302
O 0.60276556 0.449798405 0.662493765
O 0.24580127 0.178435564 0.663409472
O 0.638494372 0.961743116 0.666714668
O 0.223669976 0.672300756 0.666038215
O 0.061045315 0.320984155 0.678289592
O 0.793279707 0.320110738 0.680316508
O 0.160891563 0.893987894 0.682169914
O 0.695538819 0.743929267 0.685020685
O 0.849372327 0.595305383 0.696171343
O 0.984347463 0.038652632 0.702626407
O 0.424108684 0.688528776 0.703522027
O 0.420396447 0.957924068 0.708724737
O 0.767770588 0.116671875 0.7167871
O 0.067676559 0.542416155 0.71668762
O 0.279095292 0.138616532 0.722124159
O 0.556865275 0.503742993 0.719697893
O 0.290400147 0.417010367 0.719352007
O 0.552163839 0.233240053 0.732078791
O 0.02343262 0.785245597 0.732992172
O 0.786505222 0.904382586 0.749454439
O 0.045416541 0.269363254 0.738398612
O 0.798309863 0.398652971 0.73989743
O 0.269439191 0.892317176 0.761216223
O 0.538546801 0.730805516 0.759919941
O 0.535651386 0.982700288 0.76333189
O 0.286082208 0.646540165 0.756244957
O 0.761158526 0.620532334 0.755843818
O 0.058033004 0.03504654 0.763800204
O 0.34746924 0.143398836 0.778205335
O 0.41952908 0.442727119 0.770756721
O 0.816911995 0.146793276 0.774739265
O 0.023457276 0.60498625 0.774676144


CELL_PARAMETERS {bohr}
21.34063429 0 0
-6.75224699 20.24424671 0
0 0 90.70685398

K_POINTS gamma

