&control
    calculation='scf'
    prefix='onlyAl_M0D008'
    pseudo_dir = './',
    outdir='./temp'
    tprnfor=.true.
    tefield = .true.
    dipfield = .true.
 /
&system
    ibrav=  0,
    occupations='smearing',
    smearing='fd',
    degauss=0.003166831869729,
    nat=32, ntyp= 1,
    ecutwfc = 100,
    nosym = .true.
    edir = 3
    eamp = -0.008
    emaxpos = 0.9
    eopreg = 0.2
 /
 &electrons
  conv_thr    = 1.D-9,
  mixing_beta = 0.7D0,
  startingwfc='atomic'
 /
 &IONS
 /
ATOMIC_SPECIES
Al  26  Al.upf
ATOMIC_POSITIONS crystal
Al	0	0	0.383482575
Al	0.333333313	0	0.538839102
Al	0.666666627	0	0.461160839
Al	0	0	0.616517425
Al	0.166666657	0.5	0.461160839
Al	0.5	0.5	0.616517425
Al	0.833333313	0.5	0.538839102
Al	0.916666687	0.75	0.461160839
Al	0.25000006	0.75	0.616517425
Al	0.583333254	0.75	0.538839102
Al	0.25000006	0.75	0.383482575
Al	0.083333381	0.25	0.538839102
Al	0.75	0.25	0.383482575
Al	0.75	0.25	0.616517425
Al	0.416666597	0.25	0.461160839
Al	0.916666687	0.25	0.461160839
Al	0.25000006	0.25	0.616517425
Al	0.583333254	0.25	0.538839102
Al	0.25000006	0.25	0.383482575
Al	0.083333381	0.75	0.538839102
Al	0.75	0.75	0.383482575
Al	0.75	0.75	0.616517425
Al	0.416666597	0.75	0.461160839
Al	0.166666657	0	0.461160839
Al	0.5	0	0.616517425
Al	0.833333313	0	0.538839102
Al	0.5	0	0.383482575
Al	0.333333313	0.5	0.538839102
Al	0	0.5	0.383482575
Al	0	0.5	0.616517425
Al	0.666666627	0.5	0.461160839
Al	0.5	0.5	0.383482575

CELL_PARAMETERS {bohr}
18.68340156	0	0
0	10.78686704	0
0	0	56.69178374

K_POINTS automatic
12 12 1 1 1 0


