&control
    calculation='scf'
    prefix='GaAs_111_M0D003Ha'
    pseudo_dir = './',
    outdir='./temp'
    tprnfor=.true.
    tefield=.true.
    dipfield=.true.
 /
&system
    ibrav=  0,
    occupations='smearing',
    smearing='fd',
    degauss=6.33361706838587E-06,
    nat=24, ntyp= 2, 
    ecutwfc = 80,
    nosym = .true.
    edir = 3            
    eamp = -0.003
    emaxpos = 0.9
    eopreg = 0.2      
 /
 &electrons
  conv_thr    = 1.D-9,
  mixing_beta = 0.7D0,
  startingwfc='atomic'   
 /
 &IONS
 /
ATOMIC_SPECIES
Ga  69.72  Ga.upf
As  74.92  As.upf
ATOMIC_POSITIONS crystal
Ga	0	0	0.38576416
Ga	0.333333403	0.666666806	0.46884478
Ga	0.666666687	0.333333313	0.551925399
Ga	0.833333313	0.166666657	0.46884478
Ga	0.166666582	0.833333313	0.551925399
Ga	0.49999994	0.5	0.38576416
Ga	0.833333254	0.666666806	0.46884478
Ga	0.166666538	0.333333313	0.551925399
Ga	0.5	0	0.38576416
Ga	0.333333284	0.166666657	0.46884478
Ga	0.666666687	0.833333313	0.551925399
Ga	0	0.5	0.38576416
As	0.833333313	0.166666657	0.531155252
As	0.166666582	0.833333313	0.614235841
As	0.49999994	0.5	0.448074632
As	0	0	0.448074632
As	0.333333403	0.666666806	0.531155252
As	0.666666687	0.333333313	0.614235841
As	0.333333284	0.166666657	0.531155252
As	0.666666687	0.833333313	0.614235841
As	0	0.5	0.448074632
As	0.833333254	0.666666806	0.531155252
As	0.166666538	0.333333313	0.614235841
As	0.5	0	0.448074632


CELL_PARAMETERS {bohr}
15.36722576	0	0
-7.683612878	13.30840789	0
0	0	75.51271171

K_POINTS automatic
10 10 1 1 1 0

